# Solution for model evaporation_srl_ilp
# Objective value = 1.2013138573903214e+01
Z_577_2_0 0
Z_577_2_1 0
Z_577_2_2 1
Z_577_2_3 0
Z_577_1_0 1
Z_577_1_1 0
Z_577_1_2 0
Z_577_1_3 0
Z_577_0_0 0
Z_577_0_1 0
Z_577_0_2 0
Z_577_0_3 1
Z_21_0_0 1
Z_21_0_1 0
Z_21_0_2 0
Z_21_0_3 0
Z_272_0_0 1
Z_272_0_1 0
Z_272_0_2 0
Z_272_0_3 0
Z_393_0_0 0
Z_393_0_1 0
Z_393_0_2 1
Z_393_0_3 0
Z_97_0_0 1
Z_97_0_1 0
Z_97_0_2 0
Z_97_0_3 0
Z_229_0_0 1
Z_229_0_1 0
Z_229_0_2 0
Z_229_0_3 0
Z_505_3_0 0
Z_505_3_1 0
Z_505_3_2 0
Z_505_3_3 0
Z_505_5_0 1
Z_505_5_1 0
Z_505_5_2 0
Z_505_5_3 0
Z_505_1_0 0
Z_505_1_1 0
Z_505_1_2 0
Z_505_1_3 0
Z_505_0_0 0
Z_505_0_1 0
Z_505_0_2 1
Z_505_0_3 0
Z_505_6_0 0
Z_505_6_1 0
Z_505_6_2 0
Z_505_6_3 0
Z_505_4_0 0
Z_505_4_1 0
Z_505_4_2 0
Z_505_4_3 0
Z_505_7_0 0
Z_505_7_1 1
Z_505_7_2 0
Z_505_7_3 0
Z_505_2_0 0
Z_505_2_1 0
Z_505_2_2 0
Z_505_2_3 1
Z_505_8_0 0
Z_505_8_1 0
Z_505_8_2 0
Z_505_8_3 0
Z_62_2_0 0
Z_62_2_1 0
Z_62_2_2 0
Z_62_2_3 1
Z_62_1_0 0
Z_62_1_1 0
Z_62_1_2 1
Z_62_1_3 0
Z_62_0_0 0
Z_62_0_1 1
Z_62_0_2 0
Z_62_0_3 0
Z_62_3_0 1
Z_62_3_1 0
Z_62_3_2 0
Z_62_3_3 0
Z_621_0_0 0
Z_621_0_1 0
Z_621_0_2 0
Z_621_0_3 1
Z_23_0_0 1
Z_23_0_1 0
Z_23_0_2 0
Z_23_0_3 0
Z_214_0_0 1
Z_214_0_1 0
Z_214_0_2 0
Z_214_0_3 0
Z_340_0_0 0
Z_340_0_1 1
Z_340_0_2 0
Z_340_0_3 0
Z_631_1_0 0
Z_631_1_1 0
Z_631_1_2 1
Z_631_1_3 0
Z_631_0_0 1
Z_631_0_1 0
Z_631_0_2 0
Z_631_0_3 0
Z_41_0_0 0
Z_41_0_1 0
Z_41_0_2 0
Z_41_0_3 1
Z_470_0_0 1
Z_470_0_1 0
Z_470_0_2 0
Z_470_0_3 0
